Version identifier: 12.10.0.0 | 2019-11-26 | 843d4de
CPXPARAM_MIP_Interval                            10
CPXPARAM_MIP_Tolerances_AbsMIPGap                0.98999999999999999
Tried aggregator 2 times.
MIP Presolve eliminated 3584 rows and 3606 columns.
MIP Presolve modified 15 coefficients.
Aggregator did 42 substitutions.
Reduced MIP has 955 rows, 720 columns, and 2906 nonzeros.
Reduced MIP has 720 binaries, 0 generals, 0 SOSs, and 0 indicators.
Presolve time = 0.04 sec. (6.79 ticks)
Found incumbent of value 4.000000 after 0.05 sec. (11.19 ticks)
Probing fixed 18 vars, tightened 0 bounds.
Probing changed sense of 40 constraints.
Probing time = 0.00 sec. (2.96 ticks)
Tried aggregator 2 times.
MIP Presolve eliminated 191 rows and 142 columns.
Aggregator did 34 substitutions.
Reduced MIP has 730 rows, 544 columns, and 2202 nonzeros.
Reduced MIP has 544 binaries, 0 generals, 0 SOSs, and 0 indicators.
Presolve time = 0.00 sec. (2.94 ticks)
Probing time = 0.00 sec. (1.05 ticks)
Tried aggregator 2 times.
Detecting symmetries...
MIP Presolve eliminated 56 rows and 45 columns.
Aggregator did 1 substitutions.
Reduced MIP has 673 rows, 498 columns, and 2021 nonzeros.
Reduced MIP has 498 binaries, 0 generals, 0 SOSs, and 0 indicators.
Presolve time = 0.00 sec. (2.85 ticks)
Probing time = 0.00 sec. (0.92 ticks)
Clique table members: 507.
MIP emphasis: balance optimality and feasibility.
MIP search method: dynamic search.
Parallel mode: deterministic, using up to 4 threads.
Root relaxation solution time = 0.01 sec. (3.02 ticks)

        Nodes                                         Cuts/
   Node  Left     Objective  IInf  Best Integer    Best Bound    ItCnt     Gap

*     0+    0                            4.0000       16.0000           300.00%
*     0+    0                            7.0000       16.0000           128.57%
      0     0       10.0000   131        7.0000       10.0000      152   42.86%
      0     0       10.0000   131        7.0000      Cuts: 87      188   42.86%
      0     0       10.0000   131        7.0000      Cuts: 23      236   42.86%
      0     0       10.0000   131        7.0000      Cuts: 39      280   42.86%
*     0+    0                            8.0000       10.0000            25.00%
*     0+    0                            9.0000       10.0000            11.11%
      0     0        cutoff              9.0000        9.0000      280    0.00%
Elapsed time = 0.21 sec. (69.10 ticks, tree = 0.01 MB, solutions = 4)
the number of Nodes = 0
